# Node Net
1740   1
3572   1
2461   1
3597   2
2761   2
 32   2
1321   3
 60   3
1921   3
3576   4
3571   4
3361   4
3421   5
3546   5
420   5
 26   6
3545   6
  7   6
3550   7
2641   7
 40   7
 59   8
 43   8
1200   8
2701   9
2640   9
2100   9
1860  10
3120  10
 38  10
3553  11
 29  11
2161  11
3420  12
1920  12
3587  12
1080  13
2940  13
  3  13
2941  14
3596  14
